letting n =  10
letting blocks =  [[1, 6], [1, 7], [1, 9], [2, 4], [3, 1], [3, 3], [4, 1], [4, 2], [4, 4], [4, 5], [4, 9], [5, 9], [6, 5], [6, 9], [7, 4], [7, 7], [7, 8], [8, 5], [8, 6], [8, 10], [9, 1], [9, 2], [10, 4], [10, 6], [10, 8], [10, 9]]
